Traveling Salesman Problem/TSP_generados/Aleatorio1620391144_14.tsp
NAME: Aleatorio1620391144_14.tsp
COMMENT: Randomly generated scenario
TYPE: TSP
DIMENSION: 14
EDGE_WEIGHT_TYPE: ATT
NODE_COORD_SECTION
1 41.75 24.48
2 48.3 38.81
3 13.85 21.27
4 36.65 36.63
5 7.69 42.65
6 1.89 19.75
7 19.03 34.45
8 43.82 10.99
9 24.32 16.73
10 6.18 15.37
11 17.95 4.99
12 5.7 44.76
13 43.34 2.52
14 25.4 7.22
