Traveling Salesman Problem/TSP_generados/Aleatorio1620391144_14.opt.tour
NAME: Aleatorio1620391144_14.opt.tour
COMMENT: Optimal solution for Aleatorio1620391144_14 (176.5855499124425)
TYPE: TOUR
DIMENSION: 14
TOUR_SECTION
1 2 4 7 5 12 6 10 3 9 11 14 13 8
-1
EOF
